
  32    1
  10

   0   0  10 2 3 4 5 6 7 8 9 14 21 
   6   6   6 16 15 13 12 11 10 
   3   4   6 30 28 15 13 12 11 
   3  10   7 31 28 26 25 18 17 15 
   6  10   8 31 30 27 26 25 23 22 20 
   5   7   6 31 27 26 24 23 19 
   7   6   2 30 10 
   4  10   6 28 26 25 24 23 22 
   3   9   6 27 26 25 24 23 22 
   3   8   3 23 20 19 
   3   6   4 26 25 23 22 
   4   9   3 27 23 19 
  10   8   3 29 24 22 
   4  10   3 29 25 22 
   6  10   2 24 19 
  10   8   2 28 23 
   4  10   2 27 24 
   3   9   2 23 22 
   6   9   1 22 
  10   5   1 24 
   9   4   1 29 
   4  10   1 32
   2   7   1 32
   1   9   1 32
  10   9   1 32
   5   7   1 32
   2   8   1 32
   7   5   1 32
  10  10   1 32
   8   8   1 32
   9   9   1 32
   0   0   0 
